c description: Random 3-CNF over 25 variables and 107 clauses
c generator: CNFgen (0.9.2)
c copyright: (C) 2012-2022 Massimo Lauria <massimo.lauria@uniroma1.it>
c url: https://massimolauria.net/cnfgen
c command line: cnfgen --output CNF_4.28/25_bit_107_882.cnf randkcnf 3 25 107
c
p cnf 25 107
-14 -18 -23 0
14 15 18 0
-3 -8 15 0
-10 18 20 0
-14 22 25 0
-1 -2 -3 0
4 15 -25 0
-18 -22 23 0
15 23 24 0
-2 -13 18 0
-6 11 -16 0
4 -9 -22 0
-1 7 13 0
5 12 -24 0
-3 6 25 0
1 11 15 0
-2 -4 -11 0
12 15 17 0
12 -19 -20 0
-6 -8 17 0
-5 17 -18 0
10 -11 -21 0
6 -12 -22 0
-6 12 21 0
7 19 -21 0
4 13 25 0
4 -21 -22 0
-20 -21 -22 0
-5 17 23 0
-11 23 24 0
8 -15 23 0
1 -17 -22 0
7 12 -23 0
3 -4 20 0
-1 4 -20 0
8 10 20 0
3 -9 16 0
11 15 -22 0
4 -14 -19 0
3 -22 -25 0
-3 -11 12 0
-11 -22 -24 0
9 -11 24 0
1 4 18 0
19 22 25 0
-2 3 15 0
9 -16 18 0
7 -17 -24 0
-8 -18 21 0
-9 10 -16 0
-19 20 -22 0
-5 -23 25 0
7 -15 -25 0
-3 7 -15 0
1 -3 23 0
14 -16 -18 0
-16 19 22 0
12 -13 -23 0
10 -11 -14 0
14 -23 25 0
7 15 25 0
6 8 14 0
1 12 22 0
-5 8 18 0
-12 17 -20 0
-2 -7 -8 0
4 5 -22 0
-4 -8 16 0
7 20 23 0
-8 11 23 0
-5 -11 12 0
-11 -13 20 0
-6 8 -21 0
-5 20 22 0
5 -13 14 0
-3 -4 -5 0
1 3 -7 0
6 12 -21 0
-3 -22 -23 0
-21 -22 24 0
8 9 23 0
-2 10 -15 0
6 9 -12 0
-3 6 9 0
2 3 8 0
1 -6 -16 0
9 17 24 0
1 10 -20 0
-11 -16 -17 0
-6 13 -19 0
-10 -13 18 0
-3 -10 25 0
-11 15 22 0
-16 22 25 0
-5 -17 19 0
4 10 16 0
5 -11 21 0
3 -5 -17 0
10 -21 -24 0
10 -14 -16 0
-7 -15 -25 0
4 13 20 0
15 20 24 0
5 -6 -12 0
1 -11 -17 0
9 -11 -14 0
-3 7 -10 0
